172	32	4	76	
10	10	10	10

0	0	0	0	0	0	16	1	2	3	4	5	6	7	8	9	10	11	13	19	20	22	23
1	1	0	1	1	4	6	30	28	27	21	17	14
2	4	1	4	0	9	5	29	27	16	15	14
3	4	6	0	2	6	4	29	28	18	14
4	7	4	0	5	5	6	30	29	27	26	24	21
5	7	0	4	3	1	4	29	26	25	12
6	8	2	0	2	10	4	27	21	15	14
7	0	3	4	4	3	3	30	16	14
8	0	5	4	3	2	3	27	26	14
9	2	0	3	2	9	4	30	27	26	24
10	1	6	4	0	9	4	30	27	25	24
11	2	3	5	0	1	4	29	26	25	24
12	3	0	3	10	3	3	30	28	24
13	3	3	4	0	8	2	24	21
14	6	3	2	0	9	2	25	24
15	3	3	3	0	4	2	28	24
16	3	2	6	0	5	2	26	24
17	8	0	5	7	9	2	29	25
18	4	0	3	9	5	2	27	26
19	4	4	0	5	7	2	28	26
20	1	0	2	2	5	2	27	24
21	7	6	5	0	5	1	25
22	4	4	0	2	2	1	25
23	3	0	4	4	6	1	24
24	0	7	8	3	6	1	31
25	6	3	5	0	9	1	31
26	0	3	5	5	3	1	31
27	5	7	5	0	6	1	31
28	3	7	0	5	7	1	31
29	1	0	2	2	5	1	31
30	4	2	5	0	9	1	31
31	0	0	0	0	0	0
